n=9;
m=24;
k=6;
initial_edges=[
(1, 8),
(1, 5),
(1, 7),
(1, 9),
(1, 6),
(2, 7),
(2, 6),
(2, 3),
(2, 8),
(2, 4),
(3, 7),
(3, 4),
(3, 9),
(3, 8),
(3, 5),
(4, 6),
(4, 9),
(5, 7),
(5, 9),
(5, 8),
(6, 7),
(6, 9),
(6, 8),
(8, 9),
];